81
0 73 53 5 80 20 3 7 17 70 
39 29 19 69 4 42 56 40 76 12 
11 24 77 41 71 35 9 51 48 26 
13 74 1 54 28 75 14 37 10 50 
6 31 57 65 47 52 78 72 38 79 
67 58 23 25 36 60 2 66 61 33 
22 68 64 59 30 16 46 45 55 44 
32 27 49 8 63 21 62 18 43 34 
15 
